c User generated cnf file
p cnf 8 23
7 6 -1 0 
1 1 -4 0 
8 4 -5 0 
3 -3 3 0 
6 -2 3 0 
5 -4 6 0 
1 -1 6 0 
3 -5 7 0 
2 7 -6 0 
2 -4 3 0 
2 2 -4 0 
7 -8 1 0 
6 3 -3 0 
1 -2 8 0 
6 -7 5 0 
1 -3 1 0 
5 -3 6 0 
5 -3 7 0 
7 2 -6 0 
3 6 -7 0 
6 1 -1 0 
3 -7 8 0 
4 -4 3 0 
